experiment/data/lkh-res/Vrp-Set-B-n63/Vrp-Set-B-n63-lkh/0.lkh1.vrp
NAME : 0
COMMENT : CVRP Instance
TYPE : CVRP
DIMENSION : 63
EDGE_WEIGHT_TYPE : EUC_2D
CAPACITY : 100
NODE_COORD_SECTION
1	7300	8900
2	9700	2200
3	1900	3100
4	2300	9500
5	1800	8900
6	6000	9400
7	900	2600
8	7100	700
9	1000	8000
10	2700	6400
11	4600	3200
12	2600	0
13	800	800
14	6300	10100
15	1600	1000
16	3000	6900
17	2600	10300
18	2000	0
19	9900	3200
20	1600	3300
21	7900	1300
22	1800	3000
23	2700	4100
24	3400	400
25	1900	0
26	1200	3300
27	1100	2800
28	10100	0
29	6900	9800
30	6900	10200
31	1500	8100
32	2600	9000
33	6500	10000
34	1400	2900
35	2100	4000
36	1000	2900
37	8100	1000
38	5300	3700
39	3100	900
40	2100	3600
41	2400	9800
42	1500	1400
43	2800	3600
44	1900	0
45	3000	10200
46	8100	1500
47	1200	8600
48	3000	6500
49	6600	9900
50	1700	8900
51	10200	2900
52	1600	3100
53	1700	3300
54	3200	800
55	1100	1100
56	6100	10200
57	1600	8800
58	2900	900
59	1500	900
60	1400	8500
61	6300	9500
62	2900	3200
63	1900	3200
DEMAND_SECTION
1	0
2	18
3	11
4	18
5	17
6	21
7	6
8	12
9	6
10	21
11	14
12	2
13	5
14	12
15	23
16	23
17	19
18	18
19	8
20	21
21	7
22	19
23	18
24	7
25	6
26	12
27	21
28	6
29	21
30	20
31	18
32	6
33	20
34	20
35	23
36	4
37	21
38	4
39	6
40	9
41	21
42	5
43	20
44	11
45	16
46	48
47	2
48	15
49	15
50	22
51	25
52	23
53	5
54	24
55	11
56	24
57	20
58	21
59	10
60	24
61	3
62	9
63	5
DEPOT_SECTION
1
-1
EOF
