experiment/data/lkh-res/Vrp-Set-B-n63/Vrp-Set-B-n63-lkh/0.lkh1.log
PARAMETER_FILE = baseline_results/cvrp_lkh/Vrp-Set-B-n63/Vrp-Set-B-n63-lkh/0.lkh1.par
Reading PROBLEM_FILE: "baseline_results/cvrp_lkh/Vrp-Set-B-n63/Vrp-Set-B-n63-lkh/0.lkh1.vrp" ... done
ASCENT_CANDIDATES = 50
BACKBONE_TRIALS = 0
BACKTRACKING = NO
# BWTSP =
# CANDIDATE_FILE =
CANDIDATE_SET_TYPE = ALPHA
# DISTANCE =
DEPOT = 1
# EDGE_FILE =
EXCESS = 0.015873
EXTERNAL_SALESMEN = 0
EXTRA_CANDIDATES = 0 
EXTRA_CANDIDATE_SET_TYPE = QUADRANT
GAIN23 = NO
GAIN_CRITERION = YES
INITIAL_PERIOD = 100
INITIAL_STEP_SIZE = 1
INITIAL_TOUR_ALGORITHM = WALK
# INITIAL_TOUR_FILE = 
INITIAL_TOUR_FRACTION = 1.000
# INPUT_TOUR_FILE = 
KICK_TYPE = 4
KICKS = 1
# MAX_BREADTH =
MAKESPAN = NO
MAX_CANDIDATES = 5 
MAX_SWAPS = 0
MAX_TRIALS = 10000
# MERGE_TOUR_FILE =
MOVE_TYPE = 5 SPECIAL
MTSP_MIN_SIZE = 1
MTSP_MAX_SIZE = 62
# MTSP_SOLUTION_FILE = 
# NONSEQUENTIAL_MOVE_TYPE = 5
# OPTIMUM =
OUTPUT_TOUR_FILE = baseline_results/cvrp_lkh/Vrp-Set-B-n63/Vrp-Set-B-n63-lkh/0.lkh1.tour
PATCHING_A = 1 
PATCHING_C = 0 
# PI_FILE = 
POPMUSIC_INITIAL_TOUR = NO
POPMUSIC_MAX_NEIGHBORS = 5
POPMUSIC_SAMPLE_SIZE = 10
POPMUSIC_SOLUTIONS = 50
POPMUSIC_TRIALS = 1
POPULATION_SIZE = 10
PRECISION = 100
PROBLEM_FILE = baseline_results/cvrp_lkh/Vrp-Set-B-n63/Vrp-Set-B-n63-lkh/0.lkh1.vrp
RECOMBINATION = IPT
RESTRICTED_SEARCH = YES
RUNS = 1
SALESMEN = 10
SCALE = 1
SEED = 1234
# SINTEF_SOLUTION_FILE = 
STOP_AT_OPTIMUM = YES
SUBGRADIENT = YES
# SUBPROBLEM_SIZE =
# SUBPROBLEM_TOUR_FILE = 
SUBSEQUENT_MOVE_TYPE = 5 SPECIAL
SUBSEQUENT_PATCHING = YES
# TIME_LIMIT =
# TOTAL_TIME_LIMIT =
# TOUR_FILE = 
TRACE_LEVEL = 1
VEHICLES = 10

Lower bound = 75252.6, Ascent time = 0.01 sec.
Cand.min = 2, Cand.avg = 4.7, Cand.max = 5
Preprocessing time = 0.01 sec.
* 1: Cost = 0_161336, Time = 0.01 sec. 
Writing OUTPUT_TOUR_FILE: "baseline_results/cvrp_lkh/Vrp-Set-B-n63/Vrp-Set-B-n63-lkh/0.lkh1.tour" ... done
* 2: Cost = 0_161287, Time = 0.02 sec. 
Writing OUTPUT_TOUR_FILE: "baseline_results/cvrp_lkh/Vrp-Set-B-n63/Vrp-Set-B-n63-lkh/0.lkh1.tour" ... done
* 3: Cost = 0_157576, Time = 0.02 sec. 
Writing OUTPUT_TOUR_FILE: "baseline_results/cvrp_lkh/Vrp-Set-B-n63/Vrp-Set-B-n63-lkh/0.lkh1.tour" ... done
* 4: Cost = 0_156618, Time = 0.02 sec. 
Writing OUTPUT_TOUR_FILE: "baseline_results/cvrp_lkh/Vrp-Set-B-n63/Vrp-Set-B-n63-lkh/0.lkh1.tour" ... done
* 5: Cost = 0_155288, Time = 0.04 sec. 
Writing OUTPUT_TOUR_FILE: "baseline_results/cvrp_lkh/Vrp-Set-B-n63/Vrp-Set-B-n63-lkh/0.lkh1.tour" ... done
* 10: Cost = 0_154764, Time = 0.07 sec. 
Writing OUTPUT_TOUR_FILE: "baseline_results/cvrp_lkh/Vrp-Set-B-n63/Vrp-Set-B-n63-lkh/0.lkh1.tour" ... done
* 14: Cost = 0_154623, Time = 0.08 sec. 
Writing OUTPUT_TOUR_FILE: "baseline_results/cvrp_lkh/Vrp-Set-B-n63/Vrp-Set-B-n63-lkh/0.lkh1.tour" ... done
* 29: Cost = 0_154118, Time = 0.14 sec. 
Writing OUTPUT_TOUR_FILE: "baseline_results/cvrp_lkh/Vrp-Set-B-n63/Vrp-Set-B-n63-lkh/0.lkh1.tour" ... done
* 36: Cost = 0_154109, Time = 0.17 sec. 
Writing OUTPUT_TOUR_FILE: "baseline_results/cvrp_lkh/Vrp-Set-B-n63/Vrp-Set-B-n63-lkh/0.lkh1.tour" ... done
* 42: Cost = 0_154062, Time = 0.19 sec. 
Writing OUTPUT_TOUR_FILE: "baseline_results/cvrp_lkh/Vrp-Set-B-n63/Vrp-Set-B-n63-lkh/0.lkh1.tour" ... done
* 3036: Cost = 0_150536, Time = 10.69 sec. 
Writing OUTPUT_TOUR_FILE: "baseline_results/cvrp_lkh/Vrp-Set-B-n63/Vrp-Set-B-n63-lkh/0.lkh1.tour" ... done
* 3039: Cost = 0_150333, Time = 10.71 sec. 
Writing OUTPUT_TOUR_FILE: "baseline_results/cvrp_lkh/Vrp-Set-B-n63/Vrp-Set-B-n63-lkh/0.lkh1.tour" ... done
* 3040: Cost = 0_150280, Time = 10.71 sec. 
Writing OUTPUT_TOUR_FILE: "baseline_results/cvrp_lkh/Vrp-Set-B-n63/Vrp-Set-B-n63-lkh/0.lkh1.tour" ... done
* 3047: Cost = 0_150058, Time = 10.74 sec. 
Writing OUTPUT_TOUR_FILE: "baseline_results/cvrp_lkh/Vrp-Set-B-n63/Vrp-Set-B-n63-lkh/0.lkh1.tour" ... done
* 4420: Cost = 0_150031, Time = 16.04 sec. 
Writing OUTPUT_TOUR_FILE: "baseline_results/cvrp_lkh/Vrp-Set-B-n63/Vrp-Set-B-n63-lkh/0.lkh1.tour" ... done
* 5901: Cost = 0_149907, Time = 20.84 sec. 
Writing OUTPUT_TOUR_FILE: "baseline_results/cvrp_lkh/Vrp-Set-B-n63/Vrp-Set-B-n63-lkh/0.lkh1.tour" ... done
Population:
  1: 0_149907
Run 1: Cost = 0_149907, Time = 36.48 sec. 

Successes/Runs = 0/1 
Cost.min = 149907, Cost.avg = 149907.00, Cost.max = 149907
Gap.min = 0.0000%, Gap.avg = 0.0000%, Gap.max = 0.0000%
Penalty.min = 0, Penalty.avg = 0.00, Penalty.max = 0
Trials.min = 10000, Trials.avg = 10000.0, Trials.max = 10000
Time.min = 36.48 sec., Time.avg = 36.48 sec., Time.max = 36.48 sec.
Time.total = 36.49 sec.
  Size.min = 2, Size.max = 10, Penalty = 0
  Cost.min = 2745, Cost.max = 23798, Cost.sum = 149907
Best CVRP solution:
  Cost = 0_149907

