experiment/data/lkh-res/Vrp-Set-B-n63/Vrp-Set-B-n63-lkh/0.lkh1.tour
NAME : 0.149907.tour
COMMENT : Length = 149907
COMMENT : Found by LKH-3 [Keld Helsgaun] Tue Apr  9 01:01:00 2024
TYPE : TOUR
DIMENSION : 72
TOUR_SECTION
1
40
53
20
52
22
62
11
69
38
58
39
54
8
21
2
19
67
30
29
72
51
28
37
46
66
43
63
3
34
27
7
36
26
64
42
15
59
55
13
44
25
18
12
24
68
6
56
14
33
49
65
31
9
47
60
57
50
32
71
16
48
10
35
23
70
5
4
41
17
45
61
-1
EOF
